Route #1: 57 94 64 105 69 17 31 40 63 29
Route #2: 96 82 72 34 11 99 74
Route #3: 13 2 83 77 67 85 54 21
Route #4: 87 43 97 93 28 101 103 53
Route #5: 52 92 76 60 51 15 5
Route #6: 45 100 44 1 104 24 90 26
Route #7: 14 58 88 91 36 8 48 49
Route #8: 62 7 75 84 9 12 102
Route #9: 33 22
Route #10: 78 19 27 37 79 71 46 66
Route #11: 86 18 41 10 16 20 56
Route #12: 35 73 32 3 23 42 30 89 59
Route #13: 39 50 81 6 70 4 98 55
Route #14: 25 47 61 80 65 38 95 68
Cost 26394
